c ****************************************************************
c **     This is a Sat-2003 Competition *SHUFFLED* instance     **
c ****************************************************************
c N.B. This header has been added to the file after the competition
c Please do contact L. Simon for more informations (simon@lri.fr)
c 
c Bench submitted by: Rachel Bevan (McGill University, Montreal, CA)
c              email: rachel@mcb.mcgill.ca
c 
c The original name of this formula was: 
c    handmade/bevan/cnf/marg3x3.cnf
c Category : HandMade
c The name used during the competition was: 
c     handmade/set103/sat03-1450.cnf
c The random seed used to shuffle this instance  was: 1806915351
c 
c CPU time of solvers on this bench during the first stage 
c  (including Hors-Concours solvers):
c   +------------+--------+--------+
c   | Solver     | Time   | Answer |
c   +------------+--------+--------+
c   | lsat       |   0.01 |  UNSAT |
c   | tts        |   0.03 |  UNSAT |
c   | oepir      |   0.15 |  UNSAT |
c   | zchaff     |   0.16 |  UNSAT |
c   | siege      |   0.19 |  UNSAT |
c   | satnik     |   0.21 |  UNSAT |
c   | jerusat1a  |   0.28 |  UNSAT |
c   | jerusat1b  |   0.29 |  UNSAT |
c   | forklift   |   0.32 |  UNSAT |
c   | kcnfs      |   0.37 |  UNSAT |
c   | xqingting  |   0.45 |  UNSAT |
c   | satzilla   |   0.48 |  UNSAT |
c   | berkmin561 |   0.58 |  UNSAT |
c   | satzoo1    |   0.65 |  UNSAT |
c   | bmsat      |   0.69 |  UNSAT |
c   | limmat     |   0.73 |  UNSAT |
c   | marchsp    |   0.73 |  UNSAT |
c   | berkmin62  |   0.75 |  UNSAT |
c   | marchtt    |   0.76 |  UNSAT |
c   | satzoo0    |   0.95 |  UNSAT |
c   | funex      |   1.06 |  UNSAT |
c   | jquest2    |   1.54 |  UNSAT |
c   | sato       |   1.69 |  UNSAT |
c   | jerusat1c  |   2.18 |  UNSAT |
c   | satzilla2  |  30.48 |  UNSAT |
c   | opensat    |  99.53 |  UNSAT |
c   | amvo       | 900.00 |   --   |
c   | compsat    | 900.00 |   --   |
c   | farseer    | 900.00 |   --   |
c   | marchxq    | 900.00 |   --   |
c   | qingting   | 900.00 |   --   |
c   | saturn     | 900.00 |   --   |
c   | unitwalk   | 900.00 |   --   |
c   +------------+--------+--------+
c
c Old header begins here:
c The random seed used to shuffle this instance was seed=1806915351
p cnf 33 128
-21 -19 7 0
33 20 -6 0
-1 27 -13 32 0
-31 20 18 0
-7 -21 19 0
-4 32 16 -26 -14 0
-9 -30 -23 -8 -16 0
29 -26 -17 33 0
8 30 9 23 -16 0
29 23 -1 -19 0
15 -17 13 9 0
-2 24 -3 -30 0
25 28 27 0
-28 -10 11 0
32 -26 14 16 4 0
16 -8 9 23 30 0
5 -22 -8 -7 0
-13 17 15 9 0
25 4 -24 5 0
-23 -30 16 -8 9 0
16 32 26 14 -4 0
19 7 21 0
21 -11 -18 0
5 24 4 -25 0
-14 -6 -22 2 0
-14 22 -2 -6 0
25 -27 -28 0
-23 30 -16 -9 8 0
-5 -4 25 -24 0
-15 9 -17 -13 0
-12 31 -10 0
16 -9 -8 30 -23 0
21 -19 -7 0
6 33 -20 0
-21 11 -18 0
-5 -7 8 -22 0
18 -20 31 0
17 -29 26 -33 0
3 -2 -24 -30 0
-16 4 26 -32 -14 0
-3 30 2 24 0
3 -30 24 2 0
-5 24 -25 -4 0
23 -29 1 -19 0
-23 1 -29 19 0
5 22 8 -7 0
5 24 25 -4 0
16 -4 -14 26 -32 0
-32 -27 1 13 0
12 -3 -15 0
29 -23 1 -19 0
15 -13 -9 -17 0
16 -8 -9 -30 23 0
3 12 15 0
-11 10 -28 0
3 2 30 -24 0
16 -32 -4 14 -26 0
22 8 -5 7 0
-9 30 16 8 23 0
24 25 4 -5 0
13 27 -32 -1 0
4 -26 -16 32 -14 0
-17 26 29 -33 0
-10 28 -11 0
-17 -29 33 26 0
-22 6 -14 -2 0
-5 -8 -22 7 0
-30 8 23 -9 -16 0
-32 16 26 4 14 0
29 -33 -26 17 0
-12 -3 15 0
13 15 17 -9 0
-2 22 14 6 0
-15 -9 17 -13 0
-30 2 -24 -3 0
-24 -2 -3 30 0
8 9 -23 -30 -16 0
6 -14 22 2 0
-31 -12 10 0
19 -23 -1 29 0
26 -32 14 -16 -4 0
13 -15 -17 -9 0
-8 30 -23 9 -16 0
1 19 23 29 0
33 29 26 17 0
27 -25 -28 0
-27 13 -1 32 0
-22 2 6 14 0
10 12 31 0
-20 -31 -18 0
2 -6 22 14 0
-13 1 -32 27 0
-4 26 -16 -14 32 0
-32 -27 -1 -13 0
-16 -30 -8 9 23 0
22 7 5 -8 0
-25 -4 -24 5 0
-10 -31 12 0
4 -24 -5 -25 0
-30 8 16 -23 -9 0
3 -12 -15 0
30 -8 -16 23 -9 0
8 7 5 -22 0
9 -15 17 13 0
6 20 -33 0
26 -16 14 4 32 0
33 -29 -26 17 0
-8 -5 -7 22 0
30 -2 24 3 0
13 27 32 1 0
-25 -27 28 0
26 16 -14 32 4 0
-18 31 20 0
4 -16 -26 -32 14 0
-27 32 1 -13 0
-1 -29 -23 -19 0
-21 18 -11 0
-20 -33 -6 0
-2 14 -22 -6 0
18 11 21 0
11 10 28 0
32 -26 14 -16 -4 0
4 -32 -26 16 -14 0
30 -23 8 9 16 0
-29 -26 -17 -33 0
8 23 16 9 -30 0
-4 -16 -26 -32 -14 0
19 23 -1 -29 0
